Set parameter TokenServer to value "license1.computecanada.ca"
Read LP format model from file Data/sens-data/full/full-model/cw1-cc1-cv10-gam95-full-p2.lp
Reading time = 4.13 seconds
: 4203 rows, 38500 columns, 10832496 nonzeros
Gurobi Optimizer version 9.5.0 build v9.5.0rc5 (linux64)
Thread count: 64 physical cores, 64 logical processors, using up to 32 threads
Optimize a model with 4203 rows, 38500 columns and 10832496 nonzeros
Model fingerprint: 0x94a26bf4
Coefficient statistics:
  Matrix range     [2e-13, 6e+01]
  Objective range  [2e+02, 2e+06]
  Bounds range     [0e+00, 0e+00]
  RHS range        [1e-11, 1e+00]

Concurrent LP optimizer: primal simplex, dual simplex, and barrier
Showing barrier log only...

Presolve removed 387 rows and 1 columns (presolve time = 5s) ...
Presolve removed 387 rows and 1 columns
Presolve time: 5.79s
Presolved: 3816 rows, 38499 columns, 10089596 nonzeros

Ordering time: 0.45s

Barrier statistics:
 Dense cols : 15
 AA' NZ     : 7.221e+06
 Factor NZ  : 7.325e+06 (roughly 80 MB of memory)
 Factor Ops : 1.869e+10 (less than 1 second per iteration)
 Threads    : 30

                  Objective                Residual
Iter       Primal          Dual         Primal    Dual     Compl     Time
   0   5.79720401e+09  1.69702132e-01  2.10e+05 0.00e+00  6.08e+05    31s
   1   5.04720694e+08 -1.73379636e+06  1.76e+04 8.98e+03  5.32e+04    38s
   2   1.07436884e+08 -3.66601899e+06  3.42e+03 4.08e+03  1.15e+04    47s
   3   2.08379889e+07 -3.82842102e+06  5.40e+02 6.64e+02  2.02e+03    56s
   4   7.09301891e+06 -3.58281586e+06  1.64e+02 4.33e+02  6.94e+02    67s
   5   2.35560367e+06 -2.55563412e+06  4.81e+01 1.11e+02  2.26e+02    78s
   6   1.40967585e+06 -2.10489896e+06  2.46e+01 7.79e+01  1.35e+02    87s
   7   8.49026691e+05 -1.51200009e+06  1.15e+01 4.87e+01  7.54e+01    94s
